c cnf generated by mark.reason.ac.CompilerAce written by Mark Chavira
c
c Following are a few statistics:
c
c     Number of potentials               : 17
c     Number of constant potentials      : 0
c     Number of root potentials          : 1
c     Number of zero-one root potentials : 0
c     Number of literals                 : 264
c
p cnf 100 100
1 2 0
-2 -1 0
-2 3 0
-1 4 0
5 6 0
-6 -5 0
-6 -2 7 0
-5 -1 8 0
-6 -1 9 0
-5 -2 10 0
11 12 0
-12 -11 0
-11 -2 13 0
-12 -1 14 0
-11 -1 15 0
-12 -2 16 0
17 18 0
-18 -17 0
-18 -2 19 0
-17 -1 20 0
-18 -1 21 0
-17 -2 22 0
23 24 0
-24 -23 0
-23 -2 25 0
-24 -1 26 0
-23 -1 27 0
-24 -2 28 0
29 30 0
-30 -29 0
-29 -2 31 0
-30 -1 32 0
-29 -1 33 0
-30 -2 34 0
35 36 0
-36 -35 0
-35 -2 37 0
-36 -1 38 0
-35 -1 39 0
-36 -2 40 0
41 42 0
-42 -41 0
-42 -2 43 0
-41 -1 44 0
-42 -1 45 0
-41 -2 46 0
47 48 0
-48 -47 0
-47 -1 49 0
-47 -2 50 0
-48 -2 51 0
-48 -1 52 0
53 54 0
-54 -53 0
-54 -2 55 0
-53 -1 56 0
-54 -1 57 0
-53 -2 58 0
59 60 0
-60 -59 0
-59 -1 61 0
-60 -2 62 0
-59 -2 63 0
-60 -1 64 0
65 66 0
-66 -65 0
-65 -2 67 0
-66 -1 68 0
-65 -1 69 0
-66 -2 70 0
71 72 0
-72 -71 0
-71 -2 73 0
-72 -1 74 0
-71 -1 75 0
-72 -2 76 0
77 78 0
-78 -77 0
-77 -2 79 0
-78 -1 80 0
-77 -1 81 0
-78 -2 82 0
83 84 0
-84 -83 0
-83 -1 85 0
-84 -2 86 0
-83 -2 87 0
-84 -1 88 0
89 90 0
-90 -89 0
-90 -2 91 0
-89 -1 92 0
-90 -1 93 0
-89 -2 94 0
95 96 0
-96 -95 0
-96 -2 97 0
-95 -1 98 0
-96 -1 99 0
-95 -2 100 0
